22
3 59 2 17 
3 41 31 18 
3 37 25 36 
3 34 13 5 
3 24 54 48 
3 45 26 40 
2 37 53 
3 19 34 60 
3 50 27 58 
2 57 7 
3 24 14 12 
2 35 1 
2 47 2 
3 55 11 4 
3 55 17 52 
3 27 31 38 
3 23 13 29 
3 30 21 33 
3 29 38 3 
2 28 12 
2 45 19 
3 48 11 15 
